NAME: instance_1334
TYPE: TSP
DIMENSION: 20
EDGE_WEIGHT_TYPE: EUC_2D
NODE_COORD_SECTION
0 93.42 3.92
1 35.52 5.01
2 88.57 43.09
3 19.52 58.17
4 76.07 33.41
5 40.94 55.86
6 39.99 73.71
7 69.70 1.71
8 36.55 28.95
9 0.23 84.36
10 82.10 55.25
11 36.87 36.28
12 38.88 20.35
13 90.62 46.33
14 68.38 24.51
15 21.77 55.10
16 35.41 8.90
17 19.29 17.16
18 0.80 10.72
19 76.75 57.41
EOF
